12 24 9 10
10 2 15 17 7 18 10 20 16 18 12 14 17 8 7 7 18 2 5 20 1 15 12 16 
0.72 14.49 2.82 11.42 1.22 5.19 3.8 14.73 0.06 8.09 8.62 4.65 12.87 6.19 12.89 8.27 2.97 3.18 6.16 1.17 9.47 12.17 6.21 6.09 
3.06 12.95 1.37 14.41 7.3 13.29 11.6 7.91 5.93 1.92 13.74 8.93 0.1 2.88 6.82 3.06 3.1 9.45 7.47 1.73 13.24 0 4.04 3.29 
11.68 3.16 1.86 15.31 5.28 10.36 15.17 2.32 10.87 13.93 14.34 1.72 6.9 11.19 0.68 11.7 12.37 2.46 8.54 15.39 15.08 0.74 13.49 15.58 
12.29 11.43 10.51 4.76 7.6 1.13 15.26 10.32 0.31 8.39 11.61 14.19 1.73 3.55 10.66 4.21 4.89 11.44 0.93 0.04 14.47 4.62 10.43 7.09 
2.2 6.15 0.29 13.72 15.42 2.34 1.04 7.9 3.45 1.12 1.97 9.73 7.69 4.76 5.44 3.71 6.13 9.52 3.82 0.61 1.09 9.05 1.69 7.43 
12.05 6.42 6.77 12.11 12.4 9.12 1.58 6.89 11.57 7.94 3.22 14.36 7.15 11.54 14.82 6.64 12.34 3.47 15.68 14.8 10.08 1.65 12.74 14.98 
8.98 12.12 14.15 14.1 7.36 15.39 1.37 9.98 0.73 2.86 6.77 9.2 3.86 9.78 12.81 7.36 9.01 12.63 5.22 11.18 10.37 12.94 9.74 14.02 
9.02 7.04 2.19 5.16 12.65 2.89 12.05 1.13 10.47 1.74 4.75 12.52 5.33 2.76 11.82 14.54 4.17 15.79 5.77 7.52 5.07 3.55 1.79 12.44 
1.48 3.79 1.51 10.02 5.09 15.07 6.99 9.11 4.58 6.87 3.09 13.67 6.39 13.95 15.86 8.21 8.65 10.39 15.12 14.38 6.04 2.62 3.49 10.05 
8 8 8 8 8 8 8 8 8 8 8 8 8 8 8 8 8 8 8 8 8 8 8 8 
8.07 11.31 7.07 7.73 12.1 0.91 9.8 12.02 9.95 11.45 5.63 7.77 14.34 2.96 8.51 6.21 3.47 11.36 7.42 7.78 5.15 1.52 4.33 9.41 
15.39 7.92 11.65 5.3 4.89 3.34 3.02 10.01 1.64 2.89 10.66 15.89 10.02 9.69 4.29 8.78 15.63 10.26 7.35 15.15 5.98 10.04 11.97 13.23 
1 1 1 1 1 1 1 1 1 1 1 1 1 1 1 1 1 1 1 1 1 1 1 1 
1 1 1 1 1 1 1 1 1 1 1 1 1 1 1 1 1 1 1 1 1 1 1 1 
1 1 1 1 1 1 1 1 1 1 1 1 1 1 1 1 1 1 1 1 1 1 1 1 
1 1 1 1 1 1 1 1 1 1 1 1 1 1 1 1 1 1 1 1 1 1 1 1 
1 1 1 1 1 1 1 1 1 1 1 1 1 1 1 1 1 1 1 1 1 1 1 1 
1 1 1 1 1 1 1 1 1 1 1 1 1 1 1 1 1 1 1 1 1 1 1 1 
1 1 1 1 1 1 1 1 1 1 1 1 1 1 1 1 1 1 1 1 1 1 1 1 
1 1 1 1 1 1 1 1 1 1 1 1 1 1 1 1 1 1 1 1 1 1 1 1 
1 1 1 1 1 1 1 1 1 1 1 1 1 1 1 1 1 1 1 1 1 1 1 1 
1 1 1 1 1 1 1 1 1 1 1 1 1 1 1 1 1 1 1 1 1 1 1 1 
1 1 1 1 1 1 1 1 1 1 1 1 1 1 1 1 1 1 1 1 1 1 1 1 
1 1 1 1 1 1 1 1 1 1 1 1 1 1 1 1 1 1 1 1 1 1 1 1 
0.01 0.01 0.01 0.01 0.01 0.01 0.01 0.01 0.01 0.01 0.01 0.01 0.01 0.01 0.01 0.01 0.01 0.01 0.01 0.01 0.01 0.01 0.01 0.01 
0.02 0.02 0.02 0.02 0.02 0.02 0.02 0.02 0.02 0.02 0.02 0.02 0.02 0.02 0.02 0.02 0.02 0.02 0.02 0.02 0.02 0.02 0.02 0.02 
0.03 0.03 0.03 0.03 0.03 0.03 0.03 0.03 0.03 0.03 0.03 0.03 0.03 0.03 0.03 0.03 0.03 0.03 0.03 0.03 0.03 0.03 0.03 0.03 
0.04 0.04 0.04 0.04 0.04 0.04 0.04 0.04 0.04 0.04 0.04 0.04 0.04 0.04 0.04 0.04 0.04 0.04 0.04 0.04 0.04 0.04 0.04 0.04 
0.05 0.05 0.05 0.05 0.05 0.05 0.05 0.05 0.05 0.05 0.05 0.05 0.05 0.05 0.05 0.05 0.05 0.05 0.05 0.05 0.05 0.05 0.05 0.05 
0.06 0.06 0.06 0.06 0.06 0.06 0.06 0.06 0.06 0.06 0.06 0.06 0.06 0.06 0.06 0.06 0.06 0.06 0.06 0.06 0.06 0.06 0.06 0.06 
0.07 0.07 0.07 0.07 0.07 0.07 0.07 0.07 0.07 0.07 0.07 0.07 0.07 0.07 0.07 0.07 0.07 0.07 0.07 0.07 0.07 0.07 0.07 0.07 
0.08 0.08 0.08 0.08 0.08 0.08 0.08 0.08 0.08 0.08 0.08 0.08 0.08 0.08 0.08 0.08 0.08 0.08 0.08 0.08 0.08 0.08 0.08 0.08 
0.09 0.09 0.09 0.09 0.09 0.09 0.09 0.09 0.09 0.09 0.09 0.09 0.09 0.09 0.09 0.09 0.09 0.09 0.09 0.09 0.09 0.09 0.09 0.09 
0.1 0.1 0.1 0.1 0.1 0.1 0.1 0.1 0.1 0.1 0.1 0.1 0.1 0.1 0.1 0.1 0.1 0.1 0.1 0.1 0.1 0.1 0.1 0.1 
0.5 0.5 0.5 0.5 0.5 0.5 0.5 0.5 0.5 0.5 0.5 0.5 0.5 0.5 0.5 0.5 0.5 0.5 0.5 0.5 0.5 0.5 0.5 0.5 
1 1 1 1 1 1 1 1 1 1 1 1 1 1 1 1 1 1 1 1 1 1 1 1 
